c 3-SAT circuit validation problem
c This circuit tests a satisfiable 3-SAT configuration
c with 8 variables and 18 clauses
p cnf 8 18
1 2 3 0
-1 4 5 0
-2 -4 6 0
2 -5 7 0
-3 6 8 0
1 -6 -7 0
-1 -2 4 0
3 5 -8 0
4 -6 7 0
-4 -5 8 0
1 3 -4 0
-2 5 6 0
2 -3 -7 0
-1 6 -8 0
3 -5 7 0
1 -7 8 0
-3 4 -6 0
2 4 8 0